c colouring generated by benchmark framework
p edge 36 290
v 1 2
v 2 7
v 3 8
v 4 3
v 5 6
v 6 5
v 7 6
v 8 5
v 9 0
v 10 1
v 11 4
v 12 2
v 13 1
v 14 4
v 15 3
v 16 2
v 17 5
v 18 0
v 19 5
v 20 2
v 21 1
v 22 0
v 23 3
v 24 7
v 25 7
v 26 0
v 27 4
v 28 5
v 29 1
v 30 6
v 31 3
v 32 1
v 33 2
v 34 6
v 35 0
v 36 4
